25 40
1 2 2
1 6 2
2 3 3
2 7 3
3 4 3
3 8 3
4 5 5
4 9 3
5 10 5
6 7 5
6 11 4
7 8 2
7 12 1
8 9 2
8 13 4
9 10 5
9 14 4
10 15 4
11 12 1
11 16 1
12 13 4
12 17 2
13 14 3
13 18 3
14 15 2
14 19 4
15 20 5
16 17 3
16 21 3
17 18 5
17 22 1
18 19 2
18 23 1
19 20 5
19 24 1
20 25 2
21 22 3
22 23 5
23 24 5
24 25 5
